3 
4  56 
5  18 34 54 
6  06 19 34 49 
7  07 22 37 52 
8  07 22 37 52 
9  07 22 37 52 
10  07 22 37 52 
11  07 22 37 52 
12  07 22 37 52 
13  07 22 37 52 
14  07 22 37 52 
15  07 22 37 52 
16  07 22 37 52 
17  07 22 37 52 
18  07 22 38 54 
19  09 24 39 54 
20  09 24 39 54 
21  09 24 39 53 
22  08 23 38 53 
23 
0 
